presolving:
(round 1, fast)       0 del vars, 26 del conss, 0 add conss, 6897 chg bounds, 0 chg sides, 18 chg coeffs, 0 upgd conss, 0 impls, 0 clqs
(round 2, fast)       26 del vars, 26 del conss, 0 add conss, 6897 chg bounds, 0 chg sides, 18 chg coeffs, 0 upgd conss, 0 impls, 0 clqs
   (0.1s) running MILP presolver
   (0.1s) MILP presolver found nothing
   (0.1s) probing: 51/209 (24.4%) - 0 fixings, 0 aggregations, 0 implications, 0 bound changes
   (0.1s) probing aborted: 50/50 successive totally useless probings
   (0.1s) symmetry computation started: requiring (bin +, int -, cont +), (fixed: bin -, int +, cont -)
   (0.1s) no symmetry present
presolving (3 rounds: 3 fast, 1 medium, 1 exhaustive):
 26 deleted vars, 26 deleted constraints, 0 added constraints, 6897 tightened bounds, 0 added holes, 0 changed sides, 18 changed coefficients
 0 implications, 0 cliques
presolved problem has 7106 variables (209 bin, 0 int, 0 impl, 6897 cont) and 1276 constraints
   1276 constraints of type <linear>
Presolving Time: 0.12

 time | node  | left  |LP iter|LP it/n|mem/heur|mdpt |vars |cons |rows |cuts |sepa|confs|strbr|  dualbound   | primalbound  |  gap   | compl. 
p 0.2s|     1 |     0 |   214 |     - |   locks|   0 |7106 |1276 |1276 |   0 |  0 |   0 |   0 | 0.000000e+00 | 7.007063e+05 |    Inf | unknown
i 0.2s|     1 |     0 |   214 |     - |  oneopt|   0 |7106 |1276 |1276 |   0 |  0 |   0 |   0 | 0.000000e+00 | 2.432843e+05 |    Inf | unknown
  0.2s|     1 |     0 |   759 |     - |    56M |   0 |7106 |1276 |1276 |   0 |  0 |   0 |   0 | 1.228904e+05 | 2.432843e+05 |  97.97%| unknown
r 0.2s|     1 |     0 |   759 |     - |simplero|   0 |7106 |1276 |1276 |   0 |  0 |   0 |   0 | 1.228904e+05 | 2.155454e+05 |  75.40%| unknown
  0.3s|     1 |     0 |  1074 |     - |    59M |   0 |7106 |1276 |1311 |  35 |  1 |   0 |   0 | 1.478775e+05 | 2.155454e+05 |  45.76%| unknown
  0.4s|     1 |     0 |  1249 |     - |    60M |   0 |7106 |1276 |1332 |  56 |  2 |   0 |   0 | 1.583928e+05 | 2.155454e+05 |  36.08%| unknown
  0.4s|     1 |     0 |  1384 |     - |    60M |   0 |7106 |1276 |1344 |  68 |  3 |   0 |   0 | 1.630723e+05 | 2.155454e+05 |  32.18%| unknown
  0.6s|     1 |     0 |  1837 |     - |    62M |   0 |7106 |1276 |1373 |  97 |  4 |   0 |   0 | 1.686172e+05 | 2.155454e+05 |  27.83%| unknown
  0.8s|     1 |     0 |  2196 |     - |    63M |   0 |7106 |1276 |1401 | 125 |  5 |   0 |   0 | 1.720694e+05 | 2.155454e+05 |  25.27%| unknown
  0.9s|     1 |     0 |  2443 |     - |    63M |   0 |7106 |1276 |1420 | 144 |  6 |   0 |   0 | 1.743458e+05 | 2.155454e+05 |  23.63%| unknown
  1.1s|     1 |     0 |  2679 |     - |    63M |   0 |7106 |1276 |1438 | 162 |  7 |   0 |   0 | 1.761154e+05 | 2.155454e+05 |  22.39%| unknown
  1.3s|     1 |     0 |  3106 |     - |    63M |   0 |7106 |1276 |1465 | 189 |  8 |   0 |   0 | 1.773272e+05 | 2.155454e+05 |  21.55%| unknown
  1.5s|     1 |     0 |  3512 |     - |    64M |   0 |7106 |1276 |1491 | 215 |  9 |   0 |   0 | 1.781984e+05 | 2.155454e+05 |  20.96%| unknown
  1.7s|     1 |     0 |  3623 |     - |    64M |   0 |7106 |1276 |1499 | 223 | 10 |   0 |   0 | 1.783101e+05 | 2.155454e+05 |  20.88%| unknown
  1.9s|     1 |     0 |  3882 |     - |    64M |   0 |7106 |1276 |1513 | 237 | 11 |   0 |   0 | 1.786557e+05 | 2.155454e+05 |  20.65%| unknown
 time | node  | left  |LP iter|LP it/n|mem/heur|mdpt |vars |cons |rows |cuts |sepa|confs|strbr|  dualbound   | primalbound  |  gap   | compl. 
  2.0s|     1 |     0 |  4158 |     - |    66M |   0 |7106 |1276 |1524 | 248 | 12 |   0 |   0 | 1.790960e+05 | 2.155454e+05 |  20.35%| unknown
  2.2s|     1 |     0 |  4319 |     - |    67M |   0 |7106 |1276 |1548 | 272 | 13 |   0 |   0 | 1.792681e+05 | 2.155454e+05 |  20.24%| unknown
  2.3s|     1 |     0 |  4471 |     - |    68M |   0 |7106 |1276 |1560 | 284 | 14 |   0 |   0 | 1.793463e+05 | 2.155454e+05 |  20.18%| unknown
  2.5s|     1 |     0 |  4567 |     - |    68M |   0 |7106 |1276 |1567 | 291 | 15 |   0 |   0 | 1.793809e+05 | 2.155454e+05 |  20.16%| unknown
  2.7s|     1 |     0 |  4908 |     - |    68M |   0 |7106 |1276 |1555 | 303 | 16 |   0 |   0 | 1.797588e+05 | 2.155454e+05 |  19.91%| unknown
  2.9s|     1 |     0 |  5167 |     - |    68M |   0 |7106 |1276 |1565 | 313 | 17 |   0 |   0 | 1.798465e+05 | 2.155454e+05 |  19.85%| unknown
  3.0s|     1 |     0 |  5397 |     - |    68M |   0 |7106 |1276 |1577 | 325 | 18 |   0 |   0 | 1.799242e+05 | 2.155454e+05 |  19.80%| unknown
  3.2s|     1 |     0 |  5483 |     - |    69M |   0 |7106 |1276 |1584 | 332 | 19 |   0 |   0 | 1.799793e+05 | 2.155454e+05 |  19.76%| unknown
  3.4s|     1 |     0 |  5649 |     - |    69M |   0 |7106 |1276 |1600 | 348 | 20 |   0 |   0 | 1.800754e+05 | 2.155454e+05 |  19.70%| unknown
  3.5s|     1 |     0 |  5834 |     - |    69M |   0 |7106 |1276 |1613 | 361 | 21 |   0 |   0 | 1.801357e+05 | 2.155454e+05 |  19.66%| unknown
  3.7s|     1 |     0 |  6061 |     - |    69M |   0 |7106 |1276 |1600 | 383 | 22 |   0 |   0 | 1.801764e+05 | 2.155454e+05 |  19.63%| unknown
  3.9s|     1 |     0 |  6242 |     - |    69M |   0 |7106 |1276 |1611 | 394 | 23 |   0 |   0 | 1.802162e+05 | 2.155454e+05 |  19.60%| unknown
  4.1s|     1 |     0 |  6467 |     - |    70M |   0 |7106 |1276 |1621 | 404 | 24 |   0 |   0 | 1.802629e+05 | 2.155454e+05 |  19.57%| unknown
  4.3s|     1 |     0 |  6662 |     - |    70M |   0 |7106 |1276 |1627 | 410 | 25 |   0 |   0 | 1.802906e+05 | 2.155454e+05 |  19.55%| unknown
  4.3s|     1 |     0 |  6728 |     - |    70M |   0 |7106 |1276 |1630 | 413 | 26 |   0 |   0 | 1.802961e+05 | 2.155454e+05 |  19.55%| unknown
 time | node  | left  |LP iter|LP it/n|mem/heur|mdpt |vars |cons |rows |cuts |sepa|confs|strbr|  dualbound   | primalbound  |  gap   | compl. 
  4.5s|     1 |     0 |  6960 |     - |    70M |   0 |7106 |1276 |1638 | 421 | 27 |   0 |   0 | 1.803234e+05 | 2.155454e+05 |  19.53%| unknown
  4.7s|     1 |     0 |  7349 |     - |    70M |   0 |7106 |1276 |1613 | 437 | 28 |   0 |   0 | 1.803675e+05 | 2.155454e+05 |  19.50%| unknown
  5.0s|     1 |     0 |  7998 |     - |    72M |   0 |7106 |1276 |1629 | 453 | 29 |   0 |   0 | 1.804100e+05 | 2.155454e+05 |  19.48%| unknown
  5.2s|     1 |     0 |  8301 |     - |    72M |   0 |7106 |1276 |1640 | 464 | 30 |   0 |   0 | 1.804350e+05 | 2.155454e+05 |  19.46%| unknown
  5.4s|     1 |     0 |  8598 |     - |    72M |   0 |7106 |1276 |1649 | 473 | 31 |   0 |   0 | 1.804490e+05 | 2.155454e+05 |  19.45%| unknown
  5.6s|     1 |     0 |  8870 |     - |    72M |   0 |7106 |1276 |1656 | 480 | 32 |   0 |   0 | 1.804752e+05 | 2.155454e+05 |  19.43%| unknown
  5.8s|     1 |     0 |  9214 |     - |    72M |   0 |7106 |1276 |1664 | 488 | 33 |   0 |   0 | 1.805007e+05 | 2.155454e+05 |  19.42%| unknown
  6.0s|     1 |     0 |  9447 |     - |    72M |   0 |7106 |1276 |1621 | 493 | 34 |   0 |   0 | 1.805092e+05 | 2.155454e+05 |  19.41%| unknown
  6.2s|     1 |     0 |  9798 |     - |    72M |   0 |7106 |1276 |1632 | 504 | 35 |   0 |   0 | 1.805237e+05 | 2.155454e+05 |  19.40%| unknown
  6.3s|     1 |     0 |  9847 |     - |    72M |   0 |7106 |1276 |1635 | 507 | 36 |   0 |   0 | 1.805260e+05 | 2.155454e+05 |  19.40%| unknown
  6.4s|     1 |     0 |  9970 |     - |    72M |   0 |7106 |1276 |1638 | 510 | 37 |   0 |   0 | 1.805295e+05 | 2.155454e+05 |  19.40%| unknown
  6.5s|     1 |     0 | 10184 |     - |    72M |   0 |7106 |1276 |1641 | 513 | 38 |   0 |   0 | 1.805454e+05 | 2.155454e+05 |  19.39%| unknown
  6.6s|     1 |     0 | 10400 |     - |    72M |   0 |7106 |1276 |1652 | 524 | 39 |   0 |   0 | 1.805555e+05 | 2.155454e+05 |  19.38%| unknown
  6.8s|     1 |     0 | 10668 |     - |    72M |   0 |7106 |1276 |1619 | 534 | 40 |   0 |   0 | 1.805726e+05 | 2.155454e+05 |  19.37%| unknown
  7.0s|     1 |     0 | 10880 |     - |    73M |   0 |7106 |1276 |1626 | 541 | 41 |   0 |   0 | 1.805844e+05 | 2.155454e+05 |  19.36%| unknown
 time | node  | left  |LP iter|LP it/n|mem/heur|mdpt |vars |cons |rows |cuts |sepa|confs|strbr|  dualbound   | primalbound  |  gap   | compl. 
  7.2s|     1 |     0 | 11131 |     - |    73M |   0 |7106 |1276 |1637 | 552 | 42 |   0 |   0 | 1.805991e+05 | 2.155454e+05 |  19.35%| unknown
  7.4s|     1 |     0 | 11367 |     - |    73M |   0 |7106 |1276 |1647 | 562 | 43 |   0 |   0 | 1.806124e+05 | 2.155454e+05 |  19.34%| unknown
  7.5s|     1 |     0 | 11507 |     - |    73M |   0 |7106 |1276 |1654 | 569 | 44 |   0 |   0 | 1.806188e+05 | 2.155454e+05 |  19.34%| unknown
L14.1s|     1 |     0 | 34166 |     - |    alns|   0 |7106 |1276 |1654 | 569 | 44 |   0 |   0 | 1.806188e+05 | 2.117405e+05 |  17.23%| unknown
L14.1s|     1 |     0 | 34166 |     - |    alns|   0 |7106 |1276 |1654 | 569 | 44 |   0 |   0 | 1.806188e+05 | 2.088302e+05 |  15.62%| unknown
 14.1s|     1 |     0 | 34166 |     - |    80M |   0 |7106 |1276 |1654 | 569 | 44 |   0 |   0 | 1.806188e+05 | 2.088302e+05 |  15.62%| unknown
 14.3s|     1 |     0 | 34328 |     - |    80M |   0 |7106 |1276 |1660 | 575 | 45 |   0 |   0 | 1.806267e+05 | 2.088302e+05 |  15.61%| unknown
 14.3s|     1 |     0 | 34442 |     - |    80M |   0 |7106 |1276 |1667 | 582 | 46 |   0 |   0 | 1.806306e+05 | 2.088302e+05 |  15.61%| unknown
 22.8s|     1 |     2 | 34442 |     - |    80M |   0 |7106 |1276 |1667 | 582 | 46 |   0 |  31 | 1.807497e+05 | 2.088302e+05 |  15.54%| unknown
*49.7s|    11 |     7 | 41084 |2951.5 |    LP  |  10 |7106 |1276 |1541 | 601 |  3 |   0 | 182 | 1.807497e+05 | 1.848383e+05 |   2.26%|   0.93%
*53.2s|    14 |     4 | 43163 |2430.3 |strongbr|  10 |7106 |1277 |1524 | 618 |  2 |   1 | 199 | 1.807514e+05 | 1.840276e+05 |   1.81%|   8.05%
*54.5s|    14 |     3 | 43174 |2431.2 |strongbr|  10 |7106 |1278 |1524 | 618 |  3 |  13 | 209 | 1.807514e+05 | 1.823987e+05 |   0.91%|   8.34%
*56.1s|    15 |     3 | 43766 |2299.8 |strongbr|  10 |7106 |1280 |1524 | 618 |  2 |  17 | 221 | 1.807514e+05 | 1.814123e+05 |   0.37%|  17.50%
*56.7s|    27 |     6 | 45668 |1311.5 |    LP  |  10 |7106 |1280 |1529 | 634 |  1 |  17 | 222 | 1.807514e+05 | 1.809667e+05 |   0.12%|  22.95%

SCIP Status        : problem is solved [optimal solution found]
Solving Time (sec) : 56.85
Solving Nodes      : 33
Primal Bound       : +1.80966682995219e+05 (192 solutions)
Dual Bound         : +1.80966682995219e+05
Gap                : 0.00 %
Solve Status: optimal
Solve Time: 56.85 seconds
